
Gurobi 8.0.0 (linux64, Python) logging started Wed May 16 21:13:07 2018

Optimize a model with 1 rows, 4 columns and 4 nonzeros
Variable types: 0 continuous, 4 integer (4 binary)
Coefficient statistics:
  Matrix range     [3e+00, 8e+00]
  Objective range  [4e+00, 2e+01]
  Bounds range     [1e+00, 1e+00]
  RHS range        [1e+01, 1e+01]
Found heuristic solution: objective 18.0000000
Presolve time: 0.00s
Presolved: 1 rows, 4 columns, 4 nonzeros
Variable types: 0 continuous, 4 integer (4 binary)

Root relaxation: objective 2.125000e+01, 1 iterations, 0.00 seconds

    Nodes    |    Current Node    |     Objective Bounds      |     Work
 Expl Unexpl |  Obj  Depth IntInf | Incumbent    BestBd   Gap | It/Node Time

*    0     0               0      19.0000000   19.00000  0.00%     -    0s

Explored 0 nodes (2 simplex iterations) in 0.01 seconds
Thread count was 8 (of 8 available processors)

Solution count 2: 19 18 

Optimal solution found (tolerance 1.00e-04)
Best objective 1.900000000000e+01, best bound 1.900000000000e+01, gap 0.0000%
Freed default Gurobi environment

Gurobi 8.0.0 (linux64, Python) logging started Wed May 16 21:13:21 2018

Optimize a model with 1 rows, 400 columns and 400 nonzeros
Variable types: 0 continuous, 400 integer (400 binary)
Coefficient statistics:
  Matrix range     [5e+02, 3e+06]
  Objective range  [2e+01, 1e+06]
  Bounds range     [1e+00, 1e+00]
  RHS range        [9e+06, 9e+06]
Found heuristic solution: objective 3936579.0000
Presolve removed 0 rows and 66 columns
Presolve time: 0.00s
Presolved: 1 rows, 334 columns, 334 nonzeros
Variable types: 0 continuous, 334 integer (304 binary)

Root relaxation: objective 3.967618e+06, 1 iterations, 0.00 seconds

    Nodes    |    Current Node    |     Objective Bounds      |     Work
 Expl Unexpl |  Obj  Depth IntInf | Incumbent    BestBd   Gap | It/Node Time

     0     0 3967617.87    0    1 3936579.00 3967617.87  0.79%     -    0s
H    0     0                    3966776.0000 3967617.87  0.02%     -    0s
H    0     0                    3967080.0000 3967617.87  0.01%     -    0s
H    0     0                    3967108.0000 3967617.87  0.01%     -    0s
H    0     0                    3967132.0000 3967613.72  0.01%     -    0s
     0     0 3967446.05    0    1 3967132.00 3967446.05  0.01%     -    0s

Cutting planes:
  Cover: 1

Explored 1 nodes (2 simplex iterations) in 0.19 seconds
Thread count was 8 (of 8 available processors)

Solution count 5: 3.96713e+06 3.96711e+06 3.96708e+06 ... 3.93658e+06

Optimal solution found (tolerance 1.00e-04)
Best objective 3.967132000000e+06, best bound 3.967446000000e+06, gap 0.0079%
Freed default Gurobi environment

Gurobi 8.0.0 (linux64, Python) logging started Wed May 16 21:14:11 2018

Optimize a model with 1 rows, 10000 columns and 10000 nonzeros
Variable types: 0 continuous, 10000 integer (10000 binary)
Coefficient statistics:
  Matrix range     [9e+00, 2e+05]
  Objective range  [8e+00, 2e+05]
  Bounds range     [1e+00, 1e+00]
  RHS range        [1e+06, 1e+06]
Freed default Gurobi environment

Gurobi 8.0.0 (linux64, Python) logging started Wed May 16 21:14:21 2018

Optimize a model with 1 rows, 1000 columns and 1000 nonzeros
Variable types: 0 continuous, 1000 integer (1000 binary)
Coefficient statistics:
  Matrix range     [1e+00, 2e+04]
  Objective range  [1e+00, 2e+04]
  Bounds range     [1e+00, 1e+00]
  RHS range        [1e+05, 1e+05]
Found heuristic solution: objective 100891.00000
Presolve time: 0.00s
Presolved: 1 rows, 1000 columns, 1000 nonzeros
Variable types: 0 continuous, 1000 integer (1000 binary)

Root relaxation: objective 1.099083e+05, 1 iterations, 0.00 seconds

    Nodes    |    Current Node    |     Objective Bounds      |     Work
 Expl Unexpl |  Obj  Depth IntInf | Incumbent    BestBd   Gap | It/Node Time

     0     0 109908.296    0    1 100891.000 109908.296  8.94%     -    0s
H    0     0                    109798.00000 109908.296  0.10%     -    0s
H    0     0                    109867.00000 109908.296  0.04%     -    0s
H    0     0                    109899.00000 109908.296  0.01%     -    0s

Explored 1 nodes (1 simplex iterations) in 0.02 seconds
Thread count was 8 (of 8 available processors)

Solution count 4: 109899 109867 109798 100891 

Optimal solution found (tolerance 1.00e-04)
Best objective 1.098990000000e+05, best bound 1.099080000000e+05, gap 0.0082%
Freed default Gurobi environment

Gurobi 8.0.0 (linux64, Python) logging started Wed May 16 21:16:25 2018

Optimize a model with 1 rows, 1000 columns and 1000 nonzeros
Variable types: 0 continuous, 1000 integer (1000 binary)
Coefficient statistics:
  Matrix range     [1e+00, 2e+04]
  Objective range  [1e+00, 2e+04]
  Bounds range     [1e+00, 1e+00]
  RHS range        [1e+05, 1e+05]
Found heuristic solution: objective 100891.00000
Presolve time: 0.00s
Presolved: 1 rows, 1000 columns, 1000 nonzeros
Variable types: 0 continuous, 1000 integer (1000 binary)

Root relaxation: objective 1.099083e+05, 1 iterations, 0.00 seconds

    Nodes    |    Current Node    |     Objective Bounds      |     Work
 Expl Unexpl |  Obj  Depth IntInf | Incumbent    BestBd   Gap | It/Node Time

     0     0 109908.296    0    1 100891.000 109908.296  8.94%     -    0s
H    0     0                    109798.00000 109908.296  0.10%     -    0s
H    0     0                    109867.00000 109908.296  0.04%     -    0s
H    0     0                    109899.00000 109908.296  0.01%     -    0s

Explored 1 nodes (1 simplex iterations) in 0.02 seconds
Thread count was 8 (of 8 available processors)

Solution count 4: 109899 109867 109798 100891 

Optimal solution found (tolerance 1.00e-04)
Best objective 1.098990000000e+05, best bound 1.099080000000e+05, gap 0.0082%
Freed default Gurobi environment

Gurobi 8.0.0 (linux64, Python) logging started Wed May 16 21:17:36 2018

Optimize a model with 1 rows, 30 columns and 30 nonzeros
Variable types: 0 continuous, 30 integer (30 binary)
Coefficient statistics:
  Matrix range     [1e+04, 9e+04]
  Objective range  [1e+04, 9e+04]
  Bounds range     [1e+00, 1e+00]
  RHS range        [1e+05, 1e+05]
Found heuristic solution: objective 90000.000000
Presolve removed 0 rows and 1 columns
Presolve time: 0.00s
Presolved: 1 rows, 29 columns, 29 nonzeros
Variable types: 0 continuous, 29 integer (29 binary)

Root relaxation: objective 9.995426e+04, 1 iterations, 0.00 seconds

    Nodes    |    Current Node    |     Objective Bounds      |     Work
 Expl Unexpl |  Obj  Depth IntInf | Incumbent    BestBd   Gap | It/Node Time

     0     0 99954.2584    0    1 90000.0000 99954.2584  11.1%     -    0s
H    0     0                    99798.000000 99954.2584  0.16%     -    0s
     0     0 99951.3889    0    2 99798.0000 99951.3889  0.15%     -    0s
     0     0 99951.3889    0    2 99798.0000 99951.3889  0.15%     -    0s
     0     0 99951.3889    0    2 99798.0000 99951.3889  0.15%     -    0s

Cutting planes:
  Cover: 1
  MIR: 1

Explored 1 nodes (6 simplex iterations) in 0.01 seconds
Thread count was 8 (of 8 available processors)

Solution count 2: 99798 90000 

Optimal solution found (tolerance 1.00e-04)
Best objective 9.979800000000e+04, best bound 9.979800000000e+04, gap 0.0000%
Freed default Gurobi environment

Gurobi 8.0.0 (linux64, Python) logging started Wed May 16 21:22:49 2018

Optimize a model with 1 rows, 1000 columns and 1000 nonzeros
Variable types: 0 continuous, 1000 integer (1000 binary)
Coefficient statistics:
  Matrix range     [1e+00, 2e+04]
  Objective range  [1e+00, 2e+04]
  Bounds range     [1e+00, 1e+00]
  RHS range        [1e+05, 1e+05]
Found heuristic solution: objective 100891.00000
Presolve time: 0.00s
Presolved: 1 rows, 1000 columns, 1000 nonzeros
Variable types: 0 continuous, 1000 integer (1000 binary)

Root relaxation: objective 1.099083e+05, 1 iterations, 0.00 seconds

    Nodes    |    Current Node    |     Objective Bounds      |     Work
 Expl Unexpl |  Obj  Depth IntInf | Incumbent    BestBd   Gap | It/Node Time

     0     0 109908.296    0    1 100891.000 109908.296  8.94%     -    0s
H    0     0                    109798.00000 109908.296  0.10%     -    0s
H    0     0                    109867.00000 109908.296  0.04%     -    0s
H    0     0                    109899.00000 109908.296  0.01%     -    0s

Explored 1 nodes (1 simplex iterations) in 0.02 seconds
Thread count was 8 (of 8 available processors)

Solution count 4: 109899 109867 109798 100891 

Optimal solution found (tolerance 1.00e-04)
Best objective 1.098990000000e+05, best bound 1.099080000000e+05, gap 0.0082%
Freed default Gurobi environment

Gurobi 8.0.0 (linux64, Python) logging started Wed May 16 21:23:37 2018

Optimize a model with 1 rows, 1000 columns and 1000 nonzeros
Variable types: 0 continuous, 1000 integer (1000 binary)
Coefficient statistics:
  Matrix range     [1e+00, 2e+04]
  Objective range  [1e+00, 2e+04]
  Bounds range     [1e+00, 1e+00]
  RHS range        [1e+05, 1e+05]
Found heuristic solution: objective 100891.00000
Presolve time: 0.00s
Presolved: 1 rows, 1000 columns, 1000 nonzeros
Variable types: 0 continuous, 1000 integer (1000 binary)

Root relaxation: objective 1.099083e+05, 1 iterations, 0.00 seconds

    Nodes    |    Current Node    |     Objective Bounds      |     Work
 Expl Unexpl |  Obj  Depth IntInf | Incumbent    BestBd   Gap | It/Node Time

     0     0 109908.296    0    1 100891.000 109908.296  8.94%     -    0s
H    0     0                    109798.00000 109908.296  0.10%     -    0s
H    0     0                    109867.00000 109908.296  0.04%     -    0s
H    0     0                    109899.00000 109908.296  0.01%     -    0s

Explored 1 nodes (1 simplex iterations) in 0.02 seconds
Thread count was 8 (of 8 available processors)

Solution count 4: 109899 109867 109798 100891 

Optimal solution found (tolerance 1.00e-04)
Best objective 1.098990000000e+05, best bound 1.099080000000e+05, gap 0.0082%
Freed default Gurobi environment

Gurobi 8.0.0 (linux64, Python) logging started Wed May 16 21:23:47 2018

Optimize a model with 1 rows, 30 columns and 30 nonzeros
Variable types: 0 continuous, 30 integer (30 binary)
Coefficient statistics:
  Matrix range     [1e+04, 9e+04]
  Objective range  [1e+04, 9e+04]
  Bounds range     [1e+00, 1e+00]
  RHS range        [1e+05, 1e+05]
Found heuristic solution: objective 90000.000000
Presolve removed 0 rows and 1 columns
Presolve time: 0.00s
Presolved: 1 rows, 29 columns, 29 nonzeros
Variable types: 0 continuous, 29 integer (29 binary)

Root relaxation: objective 9.995426e+04, 1 iterations, 0.00 seconds

    Nodes    |    Current Node    |     Objective Bounds      |     Work
 Expl Unexpl |  Obj  Depth IntInf | Incumbent    BestBd   Gap | It/Node Time

     0     0 99954.2584    0    1 90000.0000 99954.2584  11.1%     -    0s
H    0     0                    99798.000000 99954.2584  0.16%     -    0s
     0     0 99951.3889    0    2 99798.0000 99951.3889  0.15%     -    0s
     0     0 99951.3889    0    2 99798.0000 99951.3889  0.15%     -    0s
     0     0 99951.3889    0    2 99798.0000 99951.3889  0.15%     -    0s

Cutting planes:
  Cover: 1
  MIR: 1

Explored 1 nodes (6 simplex iterations) in 0.01 seconds
Thread count was 8 (of 8 available processors)

Solution count 2: 99798 90000 

Optimal solution found (tolerance 1.00e-04)
Best objective 9.979800000000e+04, best bound 9.979800000000e+04, gap 0.0000%
Optimize a model with 1 rows, 50 columns and 50 nonzeros
Variable types: 0 continuous, 50 integer (50 binary)
Coefficient statistics:
  Matrix range     [6e+02, 2e+05]
  Objective range  [7e+01, 1e+05]
  Bounds range     [1e+00, 1e+00]
  RHS range        [3e+05, 3e+05]
Found heuristic solution: objective 140034.00000
Presolve removed 0 rows and 1 columns
Presolve time: 0.00s
Presolved: 1 rows, 49 columns, 49 nonzeros
Variable types: 0 continuous, 49 integer (48 binary)

Root relaxation: objective 1.424183e+05, 1 iterations, 0.00 seconds

    Nodes    |    Current Node    |     Objective Bounds      |     Work
 Expl Unexpl |  Obj  Depth IntInf | Incumbent    BestBd   Gap | It/Node Time

     0     0 142418.261    0    1 140034.000 142418.261  1.70%     -    0s
H    0     0                    141907.00000 142418.261  0.36%     -    0s
H    0     0                    142156.00000 142418.261  0.18%     -    0s
     0     0 142348.855    0    1 142156.000 142348.855  0.14%     -    0s
     0     0 142309.756    0    1 142156.000 142309.756  0.11%     -    0s
     0     0 142307.298    0    1 142156.000 142307.298  0.11%     -    0s

Cutting planes:
  Cover: 2
  MIR: 1

Explored 1 nodes (4 simplex iterations) in 0.03 seconds
Thread count was 8 (of 8 available processors)

Solution count 3: 142156 141907 140034 

Optimal solution found (tolerance 1.00e-04)
Best objective 1.421560000000e+05, best bound 1.421560000000e+05, gap 0.0000%
Optimize a model with 1 rows, 200 columns and 200 nonzeros
Variable types: 0 continuous, 200 integer (200 binary)
Coefficient statistics:
  Matrix range     [1e+04, 9e+04]
  Objective range  [1e+04, 9e+04]
  Bounds range     [1e+00, 1e+00]
  RHS range        [1e+05, 1e+05]
Found heuristic solution: objective 90001.000000
Presolve time: 0.00s
Presolved: 1 rows, 200 columns, 200 nonzeros
Variable types: 0 continuous, 200 integer (200 binary)

Root relaxation: objective 1.002853e+05, 1 iterations, 0.00 seconds

    Nodes    |    Current Node    |     Objective Bounds      |     Work
 Expl Unexpl |  Obj  Depth IntInf | Incumbent    BestBd   Gap | It/Node Time

     0     0 100285.340    0    1 90001.0000 100285.340  11.4%     -    0s
H    0     0                    100062.00000 100285.340  0.22%     -    0s
H    0     0                    100236.00000 100285.078  0.05%     -    0s
     0     0 100283.988    0    1 100236.000 100283.988  0.05%     -    0s

Cutting planes:
  Cover: 1

Explored 1 nodes (2 simplex iterations) in 0.06 seconds
Thread count was 8 (of 8 available processors)

Solution count 3: 100236 100062 90001 

Optimal solution found (tolerance 1.00e-04)
Best objective 1.002360000000e+05, best bound 1.002360000000e+05, gap 0.0000%
Optimize a model with 1 rows, 400 columns and 400 nonzeros
Variable types: 0 continuous, 400 integer (400 binary)
Coefficient statistics:
  Matrix range     [5e+02, 3e+06]
  Objective range  [2e+01, 1e+06]
  Bounds range     [1e+00, 1e+00]
  RHS range        [9e+06, 9e+06]
Found heuristic solution: objective 3936579.0000
Presolve removed 0 rows and 66 columns
Presolve time: 0.00s
Presolved: 1 rows, 334 columns, 334 nonzeros
Variable types: 0 continuous, 334 integer (304 binary)

Root relaxation: objective 3.967618e+06, 1 iterations, 0.00 seconds

    Nodes    |    Current Node    |     Objective Bounds      |     Work
 Expl Unexpl |  Obj  Depth IntInf | Incumbent    BestBd   Gap | It/Node Time

     0     0 3967617.87    0    1 3936579.00 3967617.87  0.79%     -    0s
H    0     0                    3966776.0000 3967617.87  0.02%     -    0s
H    0     0                    3967080.0000 3967617.87  0.01%     -    0s
H    0     0                    3967108.0000 3967617.87  0.01%     -    0s
H    0     0                    3967132.0000 3967613.72  0.01%     -    0s
     0     0 3967446.05    0    1 3967132.00 3967446.05  0.01%     -    0s

Cutting planes:
  Cover: 1

Explored 1 nodes (2 simplex iterations) in 0.19 seconds
Thread count was 8 (of 8 available processors)

Solution count 5: 3.96713e+06 3.96711e+06 3.96708e+06 ... 3.93658e+06

Optimal solution found (tolerance 1.00e-04)
Best objective 3.967132000000e+06, best bound 3.967446000000e+06, gap 0.0079%
Optimize a model with 1 rows, 1000 columns and 1000 nonzeros
Variable types: 0 continuous, 1000 integer (1000 binary)
Coefficient statistics:
  Matrix range     [1e+00, 2e+04]
  Objective range  [1e+00, 2e+04]
  Bounds range     [1e+00, 1e+00]
  RHS range        [1e+05, 1e+05]
Found heuristic solution: objective 100891.00000
Presolve time: 0.00s
Presolved: 1 rows, 1000 columns, 1000 nonzeros
Variable types: 0 continuous, 1000 integer (1000 binary)

Root relaxation: objective 1.099083e+05, 1 iterations, 0.00 seconds

    Nodes    |    Current Node    |     Objective Bounds      |     Work
 Expl Unexpl |  Obj  Depth IntInf | Incumbent    BestBd   Gap | It/Node Time

     0     0 109908.296    0    1 100891.000 109908.296  8.94%     -    0s
H    0     0                    109798.00000 109908.296  0.10%     -    0s
H    0     0                    109867.00000 109908.296  0.04%     -    0s
H    0     0                    109899.00000 109908.296  0.01%     -    0s

Explored 1 nodes (1 simplex iterations) in 0.02 seconds
Thread count was 8 (of 8 available processors)

Solution count 4: 109899 109867 109798 100891 

Optimal solution found (tolerance 1.00e-04)
Best objective 1.098990000000e+05, best bound 1.099080000000e+05, gap 0.0082%
Optimize a model with 1 rows, 10000 columns and 10000 nonzeros
Variable types: 0 continuous, 10000 integer (10000 binary)
Coefficient statistics:
  Matrix range     [9e+00, 2e+05]
  Objective range  [8e+00, 2e+05]
  Bounds range     [1e+00, 1e+00]
  RHS range        [1e+06, 1e+06]
Freed default Gurobi environment

Gurobi 8.0.0 (linux64, Python) logging started Wed May 16 21:24:25 2018

Optimize a model with 1 rows, 30 columns and 30 nonzeros
Variable types: 0 continuous, 30 integer (30 binary)
Coefficient statistics:
  Matrix range     [1e+04, 9e+04]
  Objective range  [1e+04, 9e+04]
  Bounds range     [1e+00, 1e+00]
  RHS range        [1e+05, 1e+05]
Found heuristic solution: objective 90000.000000
Presolve removed 0 rows and 1 columns
Presolve time: 0.00s
Presolved: 1 rows, 29 columns, 29 nonzeros
Variable types: 0 continuous, 29 integer (29 binary)

Root relaxation: objective 9.995426e+04, 1 iterations, 0.00 seconds

    Nodes    |    Current Node    |     Objective Bounds      |     Work
 Expl Unexpl |  Obj  Depth IntInf | Incumbent    BestBd   Gap | It/Node Time

     0     0 99954.2584    0    1 90000.0000 99954.2584  11.1%     -    0s
H    0     0                    99798.000000 99954.2584  0.16%     -    0s
     0     0 99951.3889    0    2 99798.0000 99951.3889  0.15%     -    0s
     0     0 99951.3889    0    2 99798.0000 99951.3889  0.15%     -    0s
     0     0 99951.3889    0    2 99798.0000 99951.3889  0.15%     -    0s

Cutting planes:
  Cover: 1
  MIR: 1

Explored 1 nodes (6 simplex iterations) in 0.01 seconds
Thread count was 8 (of 8 available processors)

Solution count 2: 99798 90000 

Optimal solution found (tolerance 1.00e-04)
Best objective 9.979800000000e+04, best bound 9.979800000000e+04, gap 0.0000%
Optimize a model with 1 rows, 50 columns and 50 nonzeros
Variable types: 0 continuous, 50 integer (50 binary)
Coefficient statistics:
  Matrix range     [6e+02, 2e+05]
  Objective range  [7e+01, 1e+05]
  Bounds range     [1e+00, 1e+00]
  RHS range        [3e+05, 3e+05]
Found heuristic solution: objective 140034.00000
Presolve removed 0 rows and 1 columns
Presolve time: 0.00s
Presolved: 1 rows, 49 columns, 49 nonzeros
Variable types: 0 continuous, 49 integer (48 binary)

Root relaxation: objective 1.424183e+05, 1 iterations, 0.00 seconds

    Nodes    |    Current Node    |     Objective Bounds      |     Work
 Expl Unexpl |  Obj  Depth IntInf | Incumbent    BestBd   Gap | It/Node Time

     0     0 142418.261    0    1 140034.000 142418.261  1.70%     -    0s
H    0     0                    141907.00000 142418.261  0.36%     -    0s
H    0     0                    142156.00000 142418.261  0.18%     -    0s
     0     0 142348.855    0    1 142156.000 142348.855  0.14%     -    0s
     0     0 142309.756    0    1 142156.000 142309.756  0.11%     -    0s
     0     0 142307.298    0    1 142156.000 142307.298  0.11%     -    0s

Cutting planes:
  Cover: 2
  MIR: 1

Explored 1 nodes (4 simplex iterations) in 0.03 seconds
Thread count was 8 (of 8 available processors)

Solution count 3: 142156 141907 140034 

Optimal solution found (tolerance 1.00e-04)
Best objective 1.421560000000e+05, best bound 1.421560000000e+05, gap 0.0000%
Optimize a model with 1 rows, 200 columns and 200 nonzeros
Variable types: 0 continuous, 200 integer (200 binary)
Coefficient statistics:
  Matrix range     [1e+04, 9e+04]
  Objective range  [1e+04, 9e+04]
  Bounds range     [1e+00, 1e+00]
  RHS range        [1e+05, 1e+05]
Found heuristic solution: objective 90001.000000
Presolve time: 0.00s
Presolved: 1 rows, 200 columns, 200 nonzeros
Variable types: 0 continuous, 200 integer (200 binary)

Root relaxation: objective 1.002853e+05, 1 iterations, 0.00 seconds

    Nodes    |    Current Node    |     Objective Bounds      |     Work
 Expl Unexpl |  Obj  Depth IntInf | Incumbent    BestBd   Gap | It/Node Time

     0     0 100285.340    0    1 90001.0000 100285.340  11.4%     -    0s
H    0     0                    100062.00000 100285.340  0.22%     -    0s
H    0     0                    100236.00000 100285.078  0.05%     -    0s
     0     0 100283.988    0    1 100236.000 100283.988  0.05%     -    0s

Cutting planes:
  Cover: 1

Explored 1 nodes (2 simplex iterations) in 0.06 seconds
Thread count was 8 (of 8 available processors)

Solution count 3: 100236 100062 90001 

Optimal solution found (tolerance 1.00e-04)
Best objective 1.002360000000e+05, best bound 1.002360000000e+05, gap 0.0000%
Optimize a model with 1 rows, 400 columns and 400 nonzeros
Variable types: 0 continuous, 400 integer (400 binary)
Coefficient statistics:
  Matrix range     [5e+02, 3e+06]
  Objective range  [2e+01, 1e+06]
  Bounds range     [1e+00, 1e+00]
  RHS range        [9e+06, 9e+06]
Found heuristic solution: objective 3936579.0000
Presolve removed 0 rows and 66 columns
Presolve time: 0.00s
Presolved: 1 rows, 334 columns, 334 nonzeros
Variable types: 0 continuous, 334 integer (304 binary)

Root relaxation: objective 3.967618e+06, 1 iterations, 0.00 seconds

    Nodes    |    Current Node    |     Objective Bounds      |     Work
 Expl Unexpl |  Obj  Depth IntInf | Incumbent    BestBd   Gap | It/Node Time

     0     0 3967617.87    0    1 3936579.00 3967617.87  0.79%     -    0s
H    0     0                    3966776.0000 3967617.87  0.02%     -    0s
H    0     0                    3967080.0000 3967617.87  0.01%     -    0s
H    0     0                    3967108.0000 3967617.87  0.01%     -    0s
H    0     0                    3967132.0000 3967613.72  0.01%     -    0s
     0     0 3967446.05    0    1 3967132.00 3967446.05  0.01%     -    0s

Cutting planes:
  Cover: 1

Explored 1 nodes (2 simplex iterations) in 0.19 seconds
Thread count was 8 (of 8 available processors)

Solution count 5: 3.96713e+06 3.96711e+06 3.96708e+06 ... 3.93658e+06

Optimal solution found (tolerance 1.00e-04)
Best objective 3.967132000000e+06, best bound 3.967446000000e+06, gap 0.0079%
Optimize a model with 1 rows, 1000 columns and 1000 nonzeros
Variable types: 0 continuous, 1000 integer (1000 binary)
Coefficient statistics:
  Matrix range     [1e+00, 2e+04]
  Objective range  [1e+00, 2e+04]
  Bounds range     [1e+00, 1e+00]
  RHS range        [1e+05, 1e+05]
Found heuristic solution: objective 100891.00000
Presolve time: 0.00s
Presolved: 1 rows, 1000 columns, 1000 nonzeros
Variable types: 0 continuous, 1000 integer (1000 binary)

Root relaxation: objective 1.099083e+05, 1 iterations, 0.00 seconds

    Nodes    |    Current Node    |     Objective Bounds      |     Work
 Expl Unexpl |  Obj  Depth IntInf | Incumbent    BestBd   Gap | It/Node Time

     0     0 109908.296    0    1 100891.000 109908.296  8.94%     -    0s
H    0     0                    109798.00000 109908.296  0.10%     -    0s
H    0     0                    109867.00000 109908.296  0.04%     -    0s
H    0     0                    109899.00000 109908.296  0.01%     -    0s

Explored 1 nodes (1 simplex iterations) in 0.02 seconds
Thread count was 8 (of 8 available processors)

Solution count 4: 109899 109867 109798 100891 

Optimal solution found (tolerance 1.00e-04)
Best objective 1.098990000000e+05, best bound 1.099080000000e+05, gap 0.0082%
Optimize a model with 1 rows, 10000 columns and 10000 nonzeros
Variable types: 0 continuous, 10000 integer (10000 binary)
Coefficient statistics:
  Matrix range     [9e+00, 2e+05]
  Objective range  [8e+00, 2e+05]
  Bounds range     [1e+00, 1e+00]
  RHS range        [1e+06, 1e+06]
Freed default Gurobi environment

Gurobi 8.0.0 (linux64, Python) logging started Wed May 16 21:24:36 2018

Optimize a model with 1 rows, 30 columns and 30 nonzeros
Variable types: 0 continuous, 30 integer (30 binary)
Coefficient statistics:
  Matrix range     [1e+04, 9e+04]
  Objective range  [1e+04, 9e+04]
  Bounds range     [1e+00, 1e+00]
  RHS range        [1e+05, 1e+05]
Found heuristic solution: objective 90000.000000
Presolve removed 0 rows and 1 columns
Presolve time: 0.00s
Presolved: 1 rows, 29 columns, 29 nonzeros
Variable types: 0 continuous, 29 integer (29 binary)

Root relaxation: objective 9.995426e+04, 1 iterations, 0.00 seconds

    Nodes    |    Current Node    |     Objective Bounds      |     Work
 Expl Unexpl |  Obj  Depth IntInf | Incumbent    BestBd   Gap | It/Node Time

     0     0 99954.2584    0    1 90000.0000 99954.2584  11.1%     -    0s
H    0     0                    99798.000000 99954.2584  0.16%     -    0s
     0     0 99951.3889    0    2 99798.0000 99951.3889  0.15%     -    0s
     0     0 99951.3889    0    2 99798.0000 99951.3889  0.15%     -    0s
     0     0 99951.3889    0    2 99798.0000 99951.3889  0.15%     -    0s

Cutting planes:
  Cover: 1
  MIR: 1

Explored 1 nodes (6 simplex iterations) in 0.01 seconds
Thread count was 8 (of 8 available processors)

Solution count 2: 99798 90000 

Optimal solution found (tolerance 1.00e-04)
Best objective 9.979800000000e+04, best bound 9.979800000000e+04, gap 0.0000%
Freed default Gurobi environment
